
Welcome to IBM(R) ILOG(R) CPLEX(R) Interactive Optimizer 22.1.1.0
  with Simplex, Mixed Integer & Barrier Optimizers
5725-A06 5725-A29 5724-Y48 5724-Y49 5724-Y54 5724-Y55 5655-Y21
Copyright IBM Corp. 1988, 2022.  All Rights Reserved.

Type 'help' for a list of available commands.
Type 'help' followed by a command name for more
information on commands.

CPLEX> Selected objective sense:  MINIMIZE
Selected objective  name:  00000000
Selected RHS        name:  RHS1
Selected bound      name:  BOUND
Problem 'ee.mps' read.
Read time = 0.03 sec. (3.14 ticks)
CPLEX> New value for time limit in seconds: 7200
CPLEX> New value for parallel optimization mode: -1
CPLEX> New value for default parallel thread count: 40
CPLEX> New value for mixed integer optimality gap tolerance: 1e-13
CPLEX> Version identifier: 22.1.1.0 | 2022-11-28 | 9160aff4d
CPXPARAM_Threads                                 40
CPXPARAM_Parallel                                -1
CPXPARAM_TimeLimit                               7200
CPXPARAM_MIP_Tolerances_MIPGap                   1e-13
Found incumbent of value 0.000000 after 0.00 sec. (0.31 ticks)
Tried aggregator 2 times.
MIP Presolve eliminated 179 rows and 2745 columns.
MIP Presolve modified 5862 coefficients.
Aggregator did 713 substitutions.
Reduced MIP has 3624 rows, 7739 columns, and 28646 nonzeros.
Reduced MIP has 7739 binaries, 0 generals, 0 SOSs, and 0 indicators.
Presolve time = 0.07 sec. (68.56 ticks)
Probing time = 0.03 sec. (5.33 ticks)
Tried aggregator 1 time.
Detecting symmetries...
Reduced MIP has 3624 rows, 7739 columns, and 28646 nonzeros.
Reduced MIP has 7739 binaries, 0 generals, 0 SOSs, and 0 indicators.
Presolve time = 0.03 sec. (21.84 ticks)
Probing time = 0.02 sec. (5.11 ticks)
Clique table members: 18552.
MIP emphasis: balance optimality and feasibility.
MIP search method: dynamic search.
Parallel mode: opportunistic, using up to 40 threads.
Root relaxation solution time = 0.07 sec. (58.27 ticks)

        Nodes                                         Cuts/
   Node  Left     Objective  IInf  Best Integer    Best Bound    ItCnt     Gap

*     0+    0                            0.0000  -1.31000e+13              --- 
*     0+    0                      -7.59000e+12  -1.31000e+13            72.60%
*     0+    0                      -8.69000e+12  -1.31000e+13            50.75%
*     0+    0                      -9.79000e+12  -1.31000e+13            33.81%
*     0+    0                      -1.08900e+13  -1.31000e+13            20.29%
*     0+    0                      -1.10000e+13  -1.31000e+13            19.09%
*     0+    0                      -1.21000e+13  -1.31000e+13             8.26%
*     0+    0                      -1.30900e+13  -1.31000e+13             0.08%
      0     0  -1.30900e+13    44  -1.30900e+13  -1.30900e+13     1347    0.00%
*     0+    0                      -1.30900e+13  -1.30900e+13             0.00%
      0     0  -1.30900e+13   126  -1.30900e+13      Cuts: 61     1777    0.00%
      0     0  -1.30900e+13   144  -1.30900e+13      Cuts: 81     2030    0.00%
*     0+    0                      -1.30900e+13  -1.30900e+13             0.00%
*     0+    0                      -1.30900e+13  -1.30900e+13             0.00%
      0     2  -1.30900e+13   116  -1.30900e+13  -1.30900e+13     2030    0.00%
Elapsed time = 1.57 sec. (743.63 ticks, tree = 0.02 MB, solutions = 11)
    309    16  -1.30900e+13    42  -1.30900e+13  -1.30900e+13     4414    0.00%
*   837    61      integral     0  -1.30900e+13  -1.30900e+13    74193    0.00%
    893    62        cutoff        -1.30900e+13  -1.30900e+13    43959    0.00%
   1476    80        cutoff        -1.30900e+13  -1.30900e+13    99808    0.00%
   2429    59  -1.30900e+13    79  -1.30900e+13  -1.30900e+13   304445    0.00%
   3462    52        cutoff        -1.30900e+13  -1.30900e+13   216689    0.00%
   4607    49        cutoff        -1.30900e+13  -1.30900e+13   218411    0.00%
   5378    54        cutoff        -1.30900e+13  -1.30900e+13   270653    0.00%
   6185   123  -1.30900e+13   153  -1.30900e+13  -1.30900e+13   377461    0.00%
   6695   161  -1.30900e+13   120  -1.30900e+13  -1.30900e+13   423048    0.00%
   7725    22  -1.30900e+13    88  -1.30900e+13  -1.30900e+13   737776    0.00%
Elapsed time = 6.89 sec. (3853.67 ticks, tree = 0.12 MB, solutions = 21)

GUB cover cuts applied:  6
Clique cuts applied:  20
Cover cuts applied:  657
Flow cuts applied:  1
Mixed integer rounding cuts applied:  11
Zero-half cuts applied:  13
Gomory fractional cuts applied:  19

Root node processing (before b&c):
  Real time             =    0.93 sec. (742.39 ticks)
Parallel b&c, 40 threads:
  Real time             =    6.05 sec. (3328.55 ticks)
  Sync time (average)   =    2.10 sec.
  Wait time (average)   =    0.00 sec.
                          ------------
Total (root+branch&cut) =    6.97 sec. (4070.94 ticks)

Solution pool: 21 solutions saved.

MIP - Integer optimal solution:  Objective = -1.3089999690e+13
Solution time =    7.10 sec.  Iterations = 745419  Nodes = 7767
Deterministic time = 4070.97 ticks  (573.41 ticks/sec)

CPLEX> Solution 'p22' written to file 'ee.sol'.
CPLEX> 